 NumberOfAtoms    51
 LatticeConstant 1.0 Ang
 %block LatticeParameters
  20.0000000  20.0000000  20.0000000   90.000000   90.000000   90.000000
 %endblock LatticeParameters
 AtomicCoordinatesFormat Fractional
 %block AtomicCoordinatesAndAtomicSpecies
   0.0000000   0.0000000   0.0000000   2
   0.1184300   0.1184300   0.0796500   2
   0.0722400   0.0722400   0.0000000   1
   0.1646100   0.1646100   0.0000000   1
   0.0461900   0.1906600   0.0796500   1
   0.1906600   0.0461900   0.0796500   1
   0.0000000   0.0000000   0.1593000   2
   0.0722400   0.0722400   0.1593000   1
   0.0000000   0.0000000  -0.1593000   2
   0.1184300   0.1184300  -0.0796500   2
   0.0722400   0.0722400  -0.1593000   1
   0.0461900   0.1906600  -0.0796500   1
   0.1906600   0.0461900  -0.0796500   1
   0.0000000   0.2368500   0.0000000   2
   0.2368500   0.0000000   0.0000000   2
  -0.1184300  -0.1184300   0.0796500   2
  -0.1646100  -0.1646100   0.0000000   1
  -0.0722400  -0.0722400   0.0000000   1
  -0.1906600  -0.0461900   0.0796500   1
  -0.0461900  -0.1906600   0.0796500   1
  -0.1184300  -0.1184300  -0.0796500   2
  -0.0722400  -0.0722400  -0.1593000   1
  -0.1906600  -0.0461900  -0.0796500   1
  -0.0461900  -0.1906600  -0.0796500   1
  -0.1184300   0.1184300  -0.0796500   2
  -0.1646100   0.0722400  -0.1593000   1
  -0.0722400   0.1646100  -0.1593000   1
  -0.0461900   0.0461900  -0.0796500   1
   0.1184300  -0.1184300  -0.0796500   2
   0.0722400  -0.1646100  -0.1593000   1
   0.1646100  -0.0722400  -0.1593000   1
   0.0461900  -0.0461900  -0.0796500   1
   0.0000000  -0.2368500   0.0000000   2
   0.1184300  -0.1184300   0.0796500   2
   0.0722400  -0.1646100   0.0000000   1
   0.1646100  -0.0722400   0.0000000   1
   0.0461900  -0.0461900   0.0796500   1
  -0.2368500   0.0000000   0.0000000   2
  -0.1184300   0.1184300   0.0796500   2
  -0.1646100   0.0722400   0.0000000   1
  -0.0722400   0.1646100   0.0000000   1
  -0.0461900   0.0461900   0.0796500   1
  -0.0722400  -0.0722400   0.1593000   1
  -0.1646100   0.0722400   0.1593000   1
  -0.0722400   0.1646100   0.1593000   1
  -0.0461900   0.0461900   0.2389500   1
   0.0722400  -0.1646100   0.1593000   1
   0.1646100  -0.0722400   0.1593000   1
   0.0461900  -0.0461900   0.2389500   1
  -0.0461900   0.0461900  -0.2389500   1
   0.0461900  -0.0461900  -0.2389500   1
 %endblock AtomicCoordinatesAndAtomicSpecies
