 Ce O                                   
   1.01666975400     
    13.2272388934306395    7.6367501927269998    0.0000000000000000
    -9.9204075194380650    5.7275501445449342    0.0000000000000000
     0.0000000000000000    0.0000000000000000   25.7942000000000000
  36  72
Selective dynamics
Direct
  0.6765364043175465  0.2707691587569998  0.2775201454163276   T   T   T
  0.4265364043175461  0.2707691587569998  0.2775201454163276   T   T   T
  0.1765364043175461  0.2707691587569998  0.2775201454163276   T   T   T
  0.9265364043175465  0.2707691587569998  0.2775201454163276   T   T   T
  0.6765414634988188  0.6041005183471515  0.2775184619995740   T   T   T
  0.4265414634988187  0.6041005183471515  0.2775184619995740   T   T   T
  0.1765414634988186  0.6041005183471515  0.2775184619995740   T   T   T
  0.9265414634988188  0.6041005183471515  0.2775184619995740   T   T   T
  0.6765512879611464  0.9374530434082147  0.2775206774139823   T   T   T
  0.4265512879611462  0.9374530434082147  0.2775206774139823   T   T   T
  0.1765512879611461  0.9374530434082147  0.2775206774139824   T   T   T
  0.9265512879611464  0.9374530434082147  0.2775206774139823   T   T   T
  0.2601086840246657  0.1602543422122590  0.1534967373713102   T   T   T
  0.0101086840246658  0.1602543422122590  0.1534967373713102   T   T   T
  0.7601086840246659  0.1602543422122590  0.1534967373713102   T   T   T
  0.5101086840246659  0.1602543422122590  0.1534967373713102   T   T   T
  0.2601037838165764  0.4935824479192059  0.1534988292820609   T   T   T
  0.0101037838165763  0.4935824479192059  0.1534988292820609   T   T   T
  0.7601037838165764  0.4935824479192059  0.1534988292820609   T   T   T
  0.5101037838165764  0.4935824479192059  0.1534988292820609   T   T   T
  0.2601080300900508  0.8269108995319082  0.1534990936859038   T   T   T
  0.0101080300900507  0.8269108995319082  0.1534990936859038   T   T   T
  0.7601080300900506  0.8269108995319082  0.1534990936859038   T   T   T
  0.5101080300900506  0.8269108995319082  0.1534990936859038   T   T   T
  0.0934000000000026  0.0490700000000004  0.0302199999999999   F   F   F
  0.8434000000000026  0.0490700000000004  0.0302199999999999   F   F   F
  0.5934000000000026  0.0490700000000004  0.0302199999999999   F   F   F
  0.3434000000000026  0.0490700000000004  0.0302199999999999   F   F   F
  0.0934000000000026  0.3824100000000001  0.0302199999999999   F   F   F
  0.8434000000000026  0.3824100000000001  0.0302199999999999   F   F   F
  0.5934000000000026  0.3824100000000001  0.0302199999999999   F   F   F
  0.3434000000000026  0.3824100000000001  0.0302199999999999   F   F   F
  0.0934000000000026  0.7157399999999967  0.0302199999999999   F   F   F
  0.8434000000000026  0.7157399999999967  0.0302199999999999   F   F   F
  0.5934000000000026  0.7157399999999967  0.0302199999999999   F   F   F
  0.3434000000000026  0.7157399999999967  0.0302199999999999   F   F   F
  0.5932599351304579  0.0486329374339926  0.3088890350467529   T   T   T
  0.0932599351304579  0.0486329374339926  0.3088890350467529   T   T   T
  0.3432599351304580  0.0486329374339926  0.3088890350467529   T   T   T
  0.0932509883262768  0.3819494149609580  0.3088904242285278   T   T   T
  0.8432509883262767  0.3819494149609580  0.3088904242285278   T   T   T
  0.3432509883262767  0.3819494149609580  0.3088904242285278   T   T   T
  0.8432599351304579  0.0486329374339926  0.3088890350467529   T   T   T
  0.5932509883262767  0.3819494149609580  0.3088904242285278   T   T   T
  0.3432424759165382  0.7152867952360236  0.3088893036147691   T   T   T
  0.5932424759165379  0.7152867952360236  0.3088893036147691   T   T   T
  0.0932424759165381  0.7152867952360236  0.3088893036147691   T   T   T
  0.8432424759165379  0.7152867952360236  0.3088893036147691   T   T   T
  0.2599233942734693  0.1597917267817382  0.2458851415261868   T   T   T
  0.5099233942734693  0.1597917267817382  0.2458851415261868   T   T   T
  0.0099233942734692  0.1597917267817382  0.2458851415261868   T   T   T
  0.7599233942734693  0.1597917267817382  0.2458851415261868   T   T   T
  0.5099251152721094  0.4931225076406237  0.2458845641181856   T   T   T
  0.0099251152721096  0.4931225076406237  0.2458845641181856   T   T   T
  0.2599251152721096  0.4931225076406237  0.2458845641181856   T   T   T
  0.0099227344849645  0.8264648331549431  0.2458844342807431   T   T   T
  0.7599227344849641  0.8264648331549431  0.2458844342807431   T   T   T
  0.2599227344849647  0.8264648331549431  0.2458844342807431   T   T   T
  0.7599251152721094  0.4931225076406237  0.2458845641181856   T   T   T
  0.5099227344849641  0.8264648331549431  0.2458844342807431   T   T   T
  0.1766541094830672  0.2710516417721818  0.1853850401068487   T   T   T
  0.4266541094830672  0.2710516417721818  0.1853850401068487   T   T   T
  0.1766618141685573  0.6043935331428685  0.1853823800393391   T   T   T
  0.6766541094830674  0.2710516417721818  0.1853850401068487   T   T   T
  0.4266618141685574  0.6043935331428685  0.1853823800393391   T   T   T
  0.9266541094830674  0.2710516417721818  0.1853850401068487   T   T   T
  0.6766618141685572  0.6043935331428685  0.1853823800393391   T   T   T
  0.9266618141685572  0.6043935331428685  0.1853823800393391   T   T   T
  0.6766587656124027  0.9377232353161558  0.1853835553339205   T   T   T
  0.1766587656124028  0.9377232353161558  0.1853835553339205   T   T   T
  0.9266587656124027  0.9377232353161558  0.1853835553339205   T   T   T
  0.4266587656124028  0.9377232353161558  0.1853835553339205   T   T   T
  0.5933679770715771  0.0489228854776326  0.1220010549954288   T   T   T
  0.0933679770715771  0.0489228854776326  0.1220010549954288   T   T   T
  0.8433679770715771  0.0489228854776326  0.1220010549954288   T   T   T
  0.3433679770715771  0.0489228854776326  0.1220010549954288   T   T   T
  0.0933666293769588  0.3822552258406353  0.1220072641489312   T   T   T
  0.3433666293769587  0.3822552258406353  0.1220072641489312   T   T   T
  0.0933712947616657  0.7155912575423302  0.1220078950359361   T   T   T
  0.5933666293769587  0.3822552258406353  0.1220072641489312   T   T   T
  0.3433712947616658  0.7155912575423302  0.1220078950359361   T   T   T
  0.8433666293769587  0.3822552258406353  0.1220072641489312   T   T   T
  0.5933712947616590  0.7155912575423302  0.1220078950359361   T   T   T
  0.8433712947616661  0.7155912575423302  0.1220078950359361   T   T   T
  0.2600699999999989  0.1601900000000001  0.0604299999999967   F   F   F
  0.0100699999999989  0.4935199999999966  0.0604299999999967   F   F   F
  0.5100699999999989  0.1601900000000001  0.0604299999999967   F   F   F
  0.0100699999999989  0.1601900000000001  0.0604299999999967   F   F   F
  0.7600699999999989  0.1601900000000001  0.0604299999999967   F   F   F
  0.5100699999999989  0.4935199999999966  0.0604299999999967   F   F   F
  0.7600699999999989  0.4935199999999966  0.0604299999999967   F   F   F
  0.2600699999999989  0.4935199999999966  0.0604299999999967   F   F   F
  0.0100699999999989  0.8268500000000003  0.0604299999999967   F   F   F
  0.7600699999999989  0.8268500000000003  0.0604299999999967   F   F   F
  0.2600699999999989  0.8268500000000003  0.0604299999999967   F   F   F
  0.5100699999999989  0.8268500000000003  0.0604299999999967   F   F   F
  0.1767400000000023  0.2712999999999965  0.0000000000000000   F   F   F
  0.9267400000000023  0.2712999999999965  0.0000000000000000   F   F   F
  0.4267400000000023  0.2712999999999965  0.0000000000000000   F   F   F
  0.6767400000000023  0.2712999999999965  0.0000000000000000   F   F   F
  0.4267400000000023  0.6046300000000002  0.0000000000000000   F   F   F
  0.1767400000000023  0.9379599999999968  0.0000000000000000   F   F   F
  0.6767400000000023  0.6046300000000002  0.0000000000000000   F   F   F
  0.1767400000000023  0.6046300000000002  0.0000000000000000   F   F   F
  0.9267400000000023  0.6046300000000002  0.0000000000000000   F   F   F
  0.6767400000000023  0.9379599999999968  0.0000000000000000   F   F   F
  0.9267400000000023  0.9379599999999968  0.0000000000000000   F   F   F
  0.4267400000000023  0.9379599999999968  0.0000000000000000   F   F   F
 
  0.00000000E+00  0.00000000E+00  0.00000000E+00
  0.00000000E+00  0.00000000E+00  0.00000000E+00
  0.00000000E+00  0.00000000E+00  0.00000000E+00
  0.00000000E+00  0.00000000E+00  0.00000000E+00
  0.00000000E+00  0.00000000E+00  0.00000000E+00
  0.00000000E+00  0.00000000E+00  0.00000000E+00
  0.00000000E+00  0.00000000E+00  0.00000000E+00
  0.00000000E+00  0.00000000E+00  0.00000000E+00
  0.00000000E+00  0.00000000E+00  0.00000000E+00
  0.00000000E+00  0.00000000E+00  0.00000000E+00
  0.00000000E+00  0.00000000E+00  0.00000000E+00
  0.00000000E+00  0.00000000E+00  0.00000000E+00
  0.00000000E+00  0.00000000E+00  0.00000000E+00
  0.00000000E+00  0.00000000E+00  0.00000000E+00
  0.00000000E+00  0.00000000E+00  0.00000000E+00
  0.00000000E+00  0.00000000E+00  0.00000000E+00
  0.00000000E+00  0.00000000E+00  0.00000000E+00
  0.00000000E+00  0.00000000E+00  0.00000000E+00
  0.00000000E+00  0.00000000E+00  0.00000000E+00
  0.00000000E+00  0.00000000E+00  0.00000000E+00
  0.00000000E+00  0.00000000E+00  0.00000000E+00
  0.00000000E+00  0.00000000E+00  0.00000000E+00
  0.00000000E+00  0.00000000E+00  0.00000000E+00
  0.00000000E+00  0.00000000E+00  0.00000000E+00
  0.00000000E+00  0.00000000E+00  0.00000000E+00
  0.00000000E+00  0.00000000E+00  0.00000000E+00
  0.00000000E+00  0.00000000E+00  0.00000000E+00
  0.00000000E+00  0.00000000E+00  0.00000000E+00
  0.00000000E+00  0.00000000E+00  0.00000000E+00
  0.00000000E+00  0.00000000E+00  0.00000000E+00
  0.00000000E+00  0.00000000E+00  0.00000000E+00
  0.00000000E+00  0.00000000E+00  0.00000000E+00
  0.00000000E+00  0.00000000E+00  0.00000000E+00
  0.00000000E+00  0.00000000E+00  0.00000000E+00
  0.00000000E+00  0.00000000E+00  0.00000000E+00
  0.00000000E+00  0.00000000E+00  0.00000000E+00
  0.00000000E+00  0.00000000E+00  0.00000000E+00
  0.00000000E+00  0.00000000E+00  0.00000000E+00
  0.00000000E+00  0.00000000E+00  0.00000000E+00
  0.00000000E+00  0.00000000E+00  0.00000000E+00
  0.00000000E+00  0.00000000E+00  0.00000000E+00
  0.00000000E+00  0.00000000E+00  0.00000000E+00
  0.00000000E+00  0.00000000E+00  0.00000000E+00
  0.00000000E+00  0.00000000E+00  0.00000000E+00
  0.00000000E+00  0.00000000E+00  0.00000000E+00
  0.00000000E+00  0.00000000E+00  0.00000000E+00
  0.00000000E+00  0.00000000E+00  0.00000000E+00
  0.00000000E+00  0.00000000E+00  0.00000000E+00
  0.00000000E+00  0.00000000E+00  0.00000000E+00
  0.00000000E+00  0.00000000E+00  0.00000000E+00
  0.00000000E+00  0.00000000E+00  0.00000000E+00
  0.00000000E+00  0.00000000E+00  0.00000000E+00
  0.00000000E+00  0.00000000E+00  0.00000000E+00
  0.00000000E+00  0.00000000E+00  0.00000000E+00
  0.00000000E+00  0.00000000E+00  0.00000000E+00
  0.00000000E+00  0.00000000E+00  0.00000000E+00
  0.00000000E+00  0.00000000E+00  0.00000000E+00
  0.00000000E+00  0.00000000E+00  0.00000000E+00
  0.00000000E+00  0.00000000E+00  0.00000000E+00
  0.00000000E+00  0.00000000E+00  0.00000000E+00
  0.00000000E+00  0.00000000E+00  0.00000000E+00
  0.00000000E+00  0.00000000E+00  0.00000000E+00
  0.00000000E+00  0.00000000E+00  0.00000000E+00
  0.00000000E+00  0.00000000E+00  0.00000000E+00
  0.00000000E+00  0.00000000E+00  0.00000000E+00
  0.00000000E+00  0.00000000E+00  0.00000000E+00
  0.00000000E+00  0.00000000E+00  0.00000000E+00
  0.00000000E+00  0.00000000E+00  0.00000000E+00
  0.00000000E+00  0.00000000E+00  0.00000000E+00
  0.00000000E+00  0.00000000E+00  0.00000000E+00
  0.00000000E+00  0.00000000E+00  0.00000000E+00
  0.00000000E+00  0.00000000E+00  0.00000000E+00
  0.00000000E+00  0.00000000E+00  0.00000000E+00
  0.00000000E+00  0.00000000E+00  0.00000000E+00
  0.00000000E+00  0.00000000E+00  0.00000000E+00
  0.00000000E+00  0.00000000E+00  0.00000000E+00
  0.00000000E+00  0.00000000E+00  0.00000000E+00
  0.00000000E+00  0.00000000E+00  0.00000000E+00
  0.00000000E+00  0.00000000E+00  0.00000000E+00
  0.00000000E+00  0.00000000E+00  0.00000000E+00
  0.00000000E+00  0.00000000E+00  0.00000000E+00
  0.00000000E+00  0.00000000E+00  0.00000000E+00
  0.00000000E+00  0.00000000E+00  0.00000000E+00
  0.00000000E+00  0.00000000E+00  0.00000000E+00
  0.00000000E+00  0.00000000E+00  0.00000000E+00
  0.00000000E+00  0.00000000E+00  0.00000000E+00
  0.00000000E+00  0.00000000E+00  0.00000000E+00
  0.00000000E+00  0.00000000E+00  0.00000000E+00
  0.00000000E+00  0.00000000E+00  0.00000000E+00
  0.00000000E+00  0.00000000E+00  0.00000000E+00
  0.00000000E+00  0.00000000E+00  0.00000000E+00
  0.00000000E+00  0.00000000E+00  0.00000000E+00
  0.00000000E+00  0.00000000E+00  0.00000000E+00
  0.00000000E+00  0.00000000E+00  0.00000000E+00
  0.00000000E+00  0.00000000E+00  0.00000000E+00
  0.00000000E+00  0.00000000E+00  0.00000000E+00
  0.00000000E+00  0.00000000E+00  0.00000000E+00
  0.00000000E+00  0.00000000E+00  0.00000000E+00
  0.00000000E+00  0.00000000E+00  0.00000000E+00
  0.00000000E+00  0.00000000E+00  0.00000000E+00
  0.00000000E+00  0.00000000E+00  0.00000000E+00
  0.00000000E+00  0.00000000E+00  0.00000000E+00
  0.00000000E+00  0.00000000E+00  0.00000000E+00
  0.00000000E+00  0.00000000E+00  0.00000000E+00
  0.00000000E+00  0.00000000E+00  0.00000000E+00
  0.00000000E+00  0.00000000E+00  0.00000000E+00
  0.00000000E+00  0.00000000E+00  0.00000000E+00
  0.00000000E+00  0.00000000E+00  0.00000000E+00
