# FCfullBZ (coord relax & base nueva)
SystemLabel      SnO2FC
NumberOfSpecies  2
%block ChemicalSpeciesLabel
    1   50  Sn
    2    8  O
%endblock ChemicalSpeciesLabel
NumberOfAtoms         162
LatticeConstant    8.9681977864  Bohr
%block LatticeVectors
   3.0000000000     0.0000000000     0.0000000000
   0.0000000804     3.0000000000     0.0000000000
   0.0000000548     0.0000000548     2.0440701000
%endblock LatticeVectors
AtomicCoordinatesFormat  NotScaledCartesianBohr
%block AtomicCoordinatesAndAtomicSpecies
  -8.9681981904    -8.9681979501    -6.1105416487      1
  -4.4840990952    -4.4840989751    -3.0552708243      1
  -6.2176518556    -6.2176516890    -6.1105416487      2
  -1.7335529078    -7.2346452361    -3.0552708243      2
  -2.7505464985    -2.7505464248    -6.1105416487      2
  -7.2346452826    -1.7335527140    -3.0552708243      2
  -8.9681980267    -8.9681977864     0.0000000000      1
  -4.4840989315    -4.4840988113     3.0552708243      1
  -6.2176516919    -6.2176515253     0.0000000000      2
  -1.7335527441    -7.2346450724     3.0552708243      2
  -2.7505463348    -2.7505462611     0.0000000000      2
  -7.2346451189    -1.7335525502     3.0552708243      2
  -8.9681978629    -8.9681976226     6.1105416487      1
  -4.4840987677    -4.4840986476     9.1658124730      1
  -6.2176515282    -6.2176513616     6.1105416487      2
  -1.7335525804    -7.2346449087     9.1658124730      2
  -2.7505461711    -2.7505460973     6.1105416487      2
  -7.2346449551    -1.7335523865     9.1658124730      2
  -8.9681979501    -0.0000001637    -6.1105416487      1
  -4.4840988549     4.4840988113    -3.0552708243      1
  -6.2176516153     2.7505460973    -6.1105416487      2
  -1.7335526675     1.7335525502    -3.0552708243      2
  -2.7505462582     6.2176513616    -6.1105416487      2
  -7.2346450423     7.2346450724    -3.0552708243      2
  -8.9681977864     0.0000000000     0.0000000000      1
  -4.4840986912     4.4840989751     3.0552708243      1
  -6.2176514516     2.7505462611     0.0000000000      2
  -1.7335525038     1.7335527140     3.0552708243      2
  -2.7505460945     6.2176515253     0.0000000000      2
  -7.2346448786     7.2346452361     3.0552708243      2
  -8.9681976226     0.0000001637     6.1105416487      1
  -4.4840985274     4.4840991388     9.1658124730      1
  -6.2176512879     2.7505464248     6.1105416487      2
  -1.7335523401     1.7335528777     9.1658124730      2
  -2.7505459307     6.2176516890     6.1105416487      2
  -7.2346447148     7.2346453999     9.1658124730      2
  -8.9681977098     8.9681976226    -6.1105416487      1
  -4.4840986146    13.4522965977    -3.0552708243      1
  -6.2176513750    11.7187438837    -6.1105416487      2
  -1.7335524272    10.7017503366    -3.0552708243      2
  -2.7505460179    15.1858491479    -6.1105416487      2
  -7.2346448020    16.2028428588    -3.0552708243      2
  -8.9681975461     8.9681977864     0.0000000000      1
  -4.4840984509    13.4522967614     3.0552708243      1
  -6.2176512113    11.7187440475     0.0000000000      2
  -1.7335522635    10.7017505003     3.0552708243      2
  -2.7505458542    15.1858493117     0.0000000000      2
  -7.2346446382    16.2028430225     3.0552708243      2
  -8.9681973823     8.9681979501     6.1105416487      1
  -4.4840982871    13.4522969252     9.1658124730      1
  -6.2176510476    11.7187442112     6.1105416487      2
  -1.7335520998    10.7017506641     9.1658124730      2
  -2.7505456904    15.1858494754     6.1105416487      2
  -7.2346444745    16.2028431862     9.1658124730      2
  -0.0000004040    -8.9681979501    -6.1105416487      1
   4.4840986912    -4.4840989751    -3.0552708243      1
   2.7505459307    -6.2176516890    -6.1105416487      2
   7.2346448786    -7.2346452361    -3.0552708243      2
   6.2176512879    -2.7505464248    -6.1105416487      2
   1.7335525038    -1.7335527140    -3.0552708243      2
  -0.0000002403    -8.9681977864     0.0000000000      1
   4.4840988549    -4.4840988113     3.0552708243      1
   2.7505460945    -6.2176515253     0.0000000000      2
   7.2346450423    -7.2346450724     3.0552708243      2
   6.2176514516    -2.7505462611     0.0000000000      2
   1.7335526675    -1.7335525502     3.0552708243      2
  -0.0000000766    -8.9681976226     6.1105416487      1
   4.4840990186    -4.4840986476     9.1658124730      1
   2.7505462582    -6.2176513616     6.1105416487      2
   7.2346452060    -7.2346449087     9.1658124730      2
   6.2176516153    -2.7505460973     6.1105416487      2
   1.7335528313    -1.7335523865     9.1658124730      2
  -0.0000001637    -0.0000001637    -6.1105416487      1
   4.4840989315     4.4840988113    -3.0552708243      1
   2.7505461711     2.7505460973    -6.1105416487      2
   7.2346451189     1.7335525502    -3.0552708243      2
   6.2176515282     6.2176513616    -6.1105416487      2
   1.7335527441     7.2346450724    -3.0552708243      2
   0.0000000000     0.0000000000     0.0000000000      1
   4.4840990952     4.4840989751     3.0552708243      1
   2.7505463348     2.7505462611     0.0000000000      2
   7.2346452826     1.7335527140     3.0552708243      2
   6.2176516919     6.2176515253     0.0000000000      2
   1.7335529078     7.2346452361     3.0552708243      2
   0.0000001637     0.0000001637     6.1105416487      1
   4.4840992589     4.4840991388     9.1658124730      1
   2.7505464985     2.7505464248     6.1105416487      2
   7.2346454463     1.7335528777     9.1658124730      2
   6.2176518556     6.2176516890     6.1105416487      2
   1.7335530716     7.2346453999     9.1658124730      2
   0.0000000766     8.9681976226    -6.1105416487      1
   4.4840991718    13.4522965977    -3.0552708243      1
   2.7505464114    11.7187438837    -6.1105416487      2
   7.2346453592    10.7017503366    -3.0552708243      2
   6.2176517685    15.1858491479    -6.1105416487      2
   1.7335529844    16.2028428588    -3.0552708243      2
   0.0000002403     8.9681977864     0.0000000000      1
   4.4840993355    13.4522967614     3.0552708243      1
   2.7505465751    11.7187440475     0.0000000000      2
   7.2346455229    10.7017505003     3.0552708243      2
   6.2176519322    15.1858493117     0.0000000000      2
   1.7335531481    16.2028430225     3.0552708243      2
   0.0000004040     8.9681979501     6.1105416487      1
   4.4840994992    13.4522969252     9.1658124730      1
   2.7505467388    11.7187442112     6.1105416487      2
   7.2346456866    10.7017506641     9.1658124730      2
   6.2176520959    15.1858494754     6.1105416487      2
   1.7335533119    16.2028431862     9.1658124730      2
   8.9681973823    -8.9681979501    -6.1105416487      1
  13.4522964775    -4.4840989751    -3.0552708243      1
  11.7187437171    -6.2176516890    -6.1105416487      2
  16.2028426649    -7.2346452361    -3.0552708243      2
  15.1858490742    -2.7505464248    -6.1105416487      2
  10.7017502902    -1.7335527140    -3.0552708243      2
   8.9681975461    -8.9681977864     0.0000000000      1
  13.4522966413    -4.4840988113     3.0552708243      1
  11.7187438809    -6.2176515253     0.0000000000      2
  16.2028428287    -7.2346450724     3.0552708243      2
  15.1858492380    -2.7505462611     0.0000000000      2
  10.7017504539    -1.7335525502     3.0552708243      2
   8.9681977098    -8.9681976226     6.1105416487      1
  13.4522968050    -4.4840986476     9.1658124730      1
  11.7187440446    -6.2176513616     6.1105416487      2
  16.2028429924    -7.2346449087     9.1658124730      2
  15.1858494017    -2.7505460973     6.1105416487      2
  10.7017506176    -1.7335523865     9.1658124730      2
   8.9681976226    -0.0000001637    -6.1105416487      1
  13.4522967178     4.4840988113    -3.0552708243      1
  11.7187439574     2.7505460973    -6.1105416487      2
  16.2028429052     1.7335525502    -3.0552708243      2
  15.1858493145     6.2176513616    -6.1105416487      2
  10.7017505305     7.2346450724    -3.0552708243      2
   8.9681977864     0.0000000000     0.0000000000      1
  13.4522968816     4.4840989751     3.0552708243      1
  11.7187441212     2.7505462611     0.0000000000      2
  16.2028430690     1.7335527140     3.0552708243      2
  15.1858494783     6.2176515253     0.0000000000      2
  10.7017506942     7.2346452361     3.0552708243      2
   8.9681979501     0.0000001637     6.1105416487      1
  13.4522970453     4.4840991388     9.1658124730      1
  11.7187442849     2.7505464248     6.1105416487      2
  16.2028432327     1.7335528777     9.1658124730      2
  15.1858496420     6.2176516890     6.1105416487      2
  10.7017508579     7.2346453999     9.1658124730      2
   8.9681978629     8.9681976226    -6.1105416487      1
  13.4522969581    13.4522965977    -3.0552708243      1
  11.7187441977    11.7187438837    -6.1105416487      2
  16.2028431455    10.7017503366    -3.0552708243      2
  15.1858495548    15.1858491479    -6.1105416487      2
  10.7017507708    16.2028428588    -3.0552708243      2
   8.9681980267     8.9681977864     0.0000000000      1
  13.4522971219    13.4522967614     3.0552708243      1
  11.7187443615    11.7187440475     0.0000000000      2
  16.2028433093    10.7017505003     3.0552708243      2
  15.1858497186    15.1858493117     0.0000000000      2
  10.7017509345    16.2028430225     3.0552708243      2
   8.9681981904     8.9681979501     6.1105416487      1
  13.4522972856    13.4522969252     9.1658124730      1
  11.7187445252    11.7187442112     6.1105416487      2
  16.2028434730    10.7017506641     9.1658124730      2
  15.1858498823    15.1858494754     6.1105416487      2
  10.7017510982    16.2028431862     9.1658124730      2
%endblock AtomicCoordinatesAndAtomicSpecies
MD.TypeOfRun           FC
MD.FCfirst             79
MD.FClast              84
MD.FCdispl             0.0100000000  Bohr
%Block PAO.Basis
Sn   3      0.57189
 n=5   0   2   E    48.97553     3.16263
     4.52650     3.51761
     1.00000     1.00000
 n=5   1   2   E     0.70334     0.26859
     5.81562     3.65820
     1.00000     1.00000
 n=5   2   1   E    68.33032     0.68970
     4.64034
     1.00000
O    3     -0.29842
 n=2   0   2   E    56.01994     3.70797
     5.13209     3.09245
     1.00000     1.00000
 n=2   1   2   E     4.94948     2.06325
     5.45052     2.81311
     1.00000     1.00000
 n=3   2   1   E    69.18627     0.67707
     3.61523
     1.00000
%EndBlock PAO.Basis
KgridCutoff          15. Ang
MeshCutoff           250. Ry
#SpinPolarized         yes
xc.functional         LDA
xc.authors            CA
SolutionMethod        diagon        # OrderN or Diagon
MaxSCFIterations       50
DM.MixingWeight       0.20
DM.Tolerance          1.d-4
DM.NumberPulay         4
ElectronicTemperature  300 K
DM.UseSaveDM          true
UseSaveData          true
#MD.TypeOfRun           cg           # Type of dynamics:
#MD.VariableCell      .true.
#MD.NumCGsteps          200
#MD.MaxForceTol         4.004 eV/Ang
#MD.MaxStressTol        2.002 eV/Ang**3
#BandLinesScale               pi/a
#%block BandLines
#1     0.0 0.0 0.0 \Gamma
#30    1.0 0.0 0.0 X
#30    1.0 1.0 0.0 M
#40    0.0 0.0 0.0 \Gamma
#45    0.0 0.0 1.46766 Z
#30    1.0 0.0 1.46766 R
#30    1.0 1.0 1.46766 A
#%endblock BandLines
#WriteMullikenPop       2
#
#%block ProjectedDensityOfStates
#   -36.00  5.00  0.100  1000  eV
#%endblock ProjectedDensityOfStates
#
#SaveDeltaRho                  .true.
#SaveRho                       .true.
#SaveElectrostaticPotential    .true.
#SaveTotalPotential            .true.
#WriteDenchar                  .true.
#%block LocalDensityOfStates
#   -6.0000  -4.5000 eV
#%endblock LocalDensityOfStates
#
#MD.BornCharge          1
#%block PolarizationGrids
#8  4  4
#4  8  4
#4  4  8
#%endblock PolarizationGrids
#
#WriteMullikenPop 1
#WriteHirshfeldPop T
#WriteVoronoiPop T
