
#FDF: Opened INPUT_TMP            for input. Unit: 12

fdf-debug              0     # Default value
SystemName                              # Default value
SystemLabel     SnO2FC                                                                                                                              
alloc_report_level              0     # Default value
user-basis              F     # Default value
user-basis-netcdf              F     # Default value
PAO.BasisSize     standard            # Default value
PAO.BasisType     split          # Default value
Number_of_species                        2

%block ChemicalSpeciesLabel                                                    
    1   50  Sn                                                                 
    2    8  O                                                                  
%endblock ChemicalSpeciesLabel                                                 
 

%Block PAO.Basis                                                               
Sn   3      0.57189                                                            
 n=5   0   2   E    48.97553     3.16263                                       
     4.52650     3.51761                                                       
     1.00000     1.00000                                                       
 n=5   1   2   E     0.70334     0.26859                                       
     5.81562     3.65820                                                       
     1.00000     1.00000                                                       
 n=5   2   1   E    68.33032     0.68970                                       
     4.64034                                                                   
     1.00000                                                                   
O    3     -0.29842                                                            
 n=2   0   2   E    56.01994     3.70797                                       
     5.13209     3.09245                                                       
     1.00000     1.00000                                                       
 n=2   1   2   E     4.94948     2.06325                                       
     5.45052     2.81311                                                       
     1.00000     1.00000                                                       
 n=3   2   1   E    69.18627     0.67707                                       
     3.61523                                                                   
     1.00000                                                                   
%EndBlock PAO.Basis                                                            
 
xc.functional     LDA                                                                                                                                 
xc.authors     CA                                                                                                                                  
PAO.EnergyShift         0.2000000000E-01 Ry     # Default value
PAO.SplitNorm         0.1500000000         # Default value
PAO.SplitNorm         0.1500000000         # Default value
xc.functional     LDA                                                                                                                                 
xc.authors     CA                                                                                                                                  
PAO.EnergyShift         0.2000000000E-01 Ry     # Default value
PAO.SplitNorm         0.1500000000         # Default value
PAO.SplitNorm         0.1500000000         # Default value
PAO.BasisType     split          # Default value
LatticeConstant          8.968197786           Bohr
# Above item originally: LatticeConstant          8.968197786     Bohr      

%block LatticeVectors                                                          
   3.0000000000     0.0000000000     0.0000000000                              
   0.0000000804     3.0000000000     0.0000000000                              
   0.0000000548     0.0000000548     2.0440701000                              
%endblock LatticeVectors                                                       
 

%block LatticeVectors                                                          
   3.0000000000     0.0000000000     0.0000000000                              
   0.0000000804     3.0000000000     0.0000000000                              
   0.0000000548     0.0000000548     2.0440701000                              
%endblock LatticeVectors                                                       
 
AtomicCoordinatesFormat     NotScaledCartesianBohr                                                                                                              
NumberOfAtoms                      162

%block AtomicCoordinatesAndAtomicSpecies                                       
  -8.9681981904    -8.9681979501    -6.1105416487      1                       
  -4.4840990952    -4.4840989751    -3.0552708243      1                       
  -6.2176518556    -6.2176516890    -6.1105416487      2                       
  -1.7335529078    -7.2346452361    -3.0552708243      2                       
  -2.7505464985    -2.7505464248    -6.1105416487      2                       
  -7.2346452826    -1.7335527140    -3.0552708243      2                       
  -8.9681980267    -8.9681977864     0.0000000000      1                       
  -4.4840989315    -4.4840988113     3.0552708243      1                       
  -6.2176516919    -6.2176515253     0.0000000000      2                       
  -1.7335527441    -7.2346450724     3.0552708243      2                       
  -2.7505463348    -2.7505462611     0.0000000000      2                       
  -7.2346451189    -1.7335525502     3.0552708243      2                       
  -8.9681978629    -8.9681976226     6.1105416487      1                       
  -4.4840987677    -4.4840986476     9.1658124730      1                       
  -6.2176515282    -6.2176513616     6.1105416487      2                       
  -1.7335525804    -7.2346449087     9.1658124730      2                       
  -2.7505461711    -2.7505460973     6.1105416487      2                       
  -7.2346449551    -1.7335523865     9.1658124730      2                       
  -8.9681979501    -0.0000001637    -6.1105416487      1                       
  -4.4840988549     4.4840988113    -3.0552708243      1                       
  -6.2176516153     2.7505460973    -6.1105416487      2                       
  -1.7335526675     1.7335525502    -3.0552708243      2                       
  -2.7505462582     6.2176513616    -6.1105416487      2                       
  -7.2346450423     7.2346450724    -3.0552708243      2                       
  -8.9681977864     0.0000000000     0.0000000000      1                       
  -4.4840986912     4.4840989751     3.0552708243      1                       
  -6.2176514516     2.7505462611     0.0000000000      2                       
  -1.7335525038     1.7335527140     3.0552708243      2                       
  -2.7505460945     6.2176515253     0.0000000000      2                       
  -7.2346448786     7.2346452361     3.0552708243      2                       
  -8.9681976226     0.0000001637     6.1105416487      1                       
  -4.4840985274     4.4840991388     9.1658124730      1                       
  -6.2176512879     2.7505464248     6.1105416487      2                       
  -1.7335523401     1.7335528777     9.1658124730      2                       
  -2.7505459307     6.2176516890     6.1105416487      2                       
  -7.2346447148     7.2346453999     9.1658124730      2                       
  -8.9681977098     8.9681976226    -6.1105416487      1                       
  -4.4840986146    13.4522965977    -3.0552708243      1                       
  -6.2176513750    11.7187438837    -6.1105416487      2                       
  -1.7335524272    10.7017503366    -3.0552708243      2                       
  -2.7505460179    15.1858491479    -6.1105416487      2                       
  -7.2346448020    16.2028428588    -3.0552708243      2                       
  -8.9681975461     8.9681977864     0.0000000000      1                       
  -4.4840984509    13.4522967614     3.0552708243      1                       
  -6.2176512113    11.7187440475     0.0000000000      2                       
  -1.7335522635    10.7017505003     3.0552708243      2                       
  -2.7505458542    15.1858493117     0.0000000000      2                       
  -7.2346446382    16.2028430225     3.0552708243      2                       
  -8.9681973823     8.9681979501     6.1105416487      1                       
  -4.4840982871    13.4522969252     9.1658124730      1                       
  -6.2176510476    11.7187442112     6.1105416487      2                       
  -1.7335520998    10.7017506641     9.1658124730      2                       
  -2.7505456904    15.1858494754     6.1105416487      2                       
  -7.2346444745    16.2028431862     9.1658124730      2                       
  -0.0000004040    -8.9681979501    -6.1105416487      1                       
   4.4840986912    -4.4840989751    -3.0552708243      1                       
   2.7505459307    -6.2176516890    -6.1105416487      2                       
   7.2346448786    -7.2346452361    -3.0552708243      2                       
   6.2176512879    -2.7505464248    -6.1105416487      2                       
   1.7335525038    -1.7335527140    -3.0552708243      2                       
  -0.0000002403    -8.9681977864     0.0000000000      1                       
   4.4840988549    -4.4840988113     3.0552708243      1                       
   2.7505460945    -6.2176515253     0.0000000000      2                       
   7.2346450423    -7.2346450724     3.0552708243      2                       
   6.2176514516    -2.7505462611     0.0000000000      2                       
   1.7335526675    -1.7335525502     3.0552708243      2                       
  -0.0000000766    -8.9681976226     6.1105416487      1                       
   4.4840990186    -4.4840986476     9.1658124730      1                       
   2.7505462582    -6.2176513616     6.1105416487      2                       
   7.2346452060    -7.2346449087     9.1658124730      2                       
   6.2176516153    -2.7505460973     6.1105416487      2                       
   1.7335528313    -1.7335523865     9.1658124730      2                       
  -0.0000001637    -0.0000001637    -6.1105416487      1                       
   4.4840989315     4.4840988113    -3.0552708243      1                       
   2.7505461711     2.7505460973    -6.1105416487      2                       
   7.2346451189     1.7335525502    -3.0552708243      2                       
   6.2176515282     6.2176513616    -6.1105416487      2                       
   1.7335527441     7.2346450724    -3.0552708243      2                       
   0.0000000000     0.0000000000     0.0000000000      1                       
   4.4840990952     4.4840989751     3.0552708243      1                       
   2.7505463348     2.7505462611     0.0000000000      2                       
   7.2346452826     1.7335527140     3.0552708243      2                       
   6.2176516919     6.2176515253     0.0000000000      2                       
   1.7335529078     7.2346452361     3.0552708243      2                       
   0.0000001637     0.0000001637     6.1105416487      1                       
   4.4840992589     4.4840991388     9.1658124730      1                       
   2.7505464985     2.7505464248     6.1105416487      2                       
   7.2346454463     1.7335528777     9.1658124730      2                       
   6.2176518556     6.2176516890     6.1105416487      2                       
   1.7335530716     7.2346453999     9.1658124730      2                       
   0.0000000766     8.9681976226    -6.1105416487      1                       
   4.4840991718    13.4522965977    -3.0552708243      1                       
   2.7505464114    11.7187438837    -6.1105416487      2                       
   7.2346453592    10.7017503366    -3.0552708243      2                       
   6.2176517685    15.1858491479    -6.1105416487      2                       
   1.7335529844    16.2028428588    -3.0552708243      2                       
   0.0000002403     8.9681977864     0.0000000000      1                       
   4.4840993355    13.4522967614     3.0552708243      1                       
   2.7505465751    11.7187440475     0.0000000000      2                       
   7.2346455229    10.7017505003     3.0552708243      2                       
   6.2176519322    15.1858493117     0.0000000000      2                       
   1.7335531481    16.2028430225     3.0552708243      2                       
   0.0000004040     8.9681979501     6.1105416487      1                       
   4.4840994992    13.4522969252     9.1658124730      1                       
   2.7505467388    11.7187442112     6.1105416487      2                       
   7.2346456866    10.7017506641     9.1658124730      2                       
   6.2176520959    15.1858494754     6.1105416487      2                       
   1.7335533119    16.2028431862     9.1658124730      2                       
   8.9681973823    -8.9681979501    -6.1105416487      1                       
  13.4522964775    -4.4840989751    -3.0552708243      1                       
  11.7187437171    -6.2176516890    -6.1105416487      2                       
  16.2028426649    -7.2346452361    -3.0552708243      2                       
  15.1858490742    -2.7505464248    -6.1105416487      2                       
  10.7017502902    -1.7335527140    -3.0552708243      2                       
   8.9681975461    -8.9681977864     0.0000000000      1                       
  13.4522966413    -4.4840988113     3.0552708243      1                       
  11.7187438809    -6.2176515253     0.0000000000      2                       
  16.2028428287    -7.2346450724     3.0552708243      2                       
  15.1858492380    -2.7505462611     0.0000000000      2                       
  10.7017504539    -1.7335525502     3.0552708243      2                       
   8.9681977098    -8.9681976226     6.1105416487      1                       
  13.4522968050    -4.4840986476     9.1658124730      1                       
  11.7187440446    -6.2176513616     6.1105416487      2                       
  16.2028429924    -7.2346449087     9.1658124730      2                       
  15.1858494017    -2.7505460973     6.1105416487      2                       
  10.7017506176    -1.7335523865     9.1658124730      2                       
   8.9681976226    -0.0000001637    -6.1105416487      1                       
  13.4522967178     4.4840988113    -3.0552708243      1                       
  11.7187439574     2.7505460973    -6.1105416487      2                       
  16.2028429052     1.7335525502    -3.0552708243      2                       
  15.1858493145     6.2176513616    -6.1105416487      2                       
  10.7017505305     7.2346450724    -3.0552708243      2                       
   8.9681977864     0.0000000000     0.0000000000      1                       
  13.4522968816     4.4840989751     3.0552708243      1                       
  11.7187441212     2.7505462611     0.0000000000      2                       
  16.2028430690     1.7335527140     3.0552708243      2                       
  15.1858494783     6.2176515253     0.0000000000      2                       
  10.7017506942     7.2346452361     3.0552708243      2                       
   8.9681979501     0.0000001637     6.1105416487      1                       
  13.4522970453     4.4840991388     9.1658124730      1                       
  11.7187442849     2.7505464248     6.1105416487      2                       
  16.2028432327     1.7335528777     9.1658124730      2                       
  15.1858496420     6.2176516890     6.1105416487      2                       
  10.7017508579     7.2346453999     9.1658124730      2                       
   8.9681978629     8.9681976226    -6.1105416487      1                       
  13.4522969581    13.4522965977    -3.0552708243      1                       
  11.7187441977    11.7187438837    -6.1105416487      2                       
  16.2028431455    10.7017503366    -3.0552708243      2                       
  15.1858495548    15.1858491479    -6.1105416487      2                       
  10.7017507708    16.2028428588    -3.0552708243      2                       
   8.9681980267     8.9681977864     0.0000000000      1                       
  13.4522971219    13.4522967614     3.0552708243      1                       
  11.7187443615    11.7187440475     0.0000000000      2                       
  16.2028433093    10.7017505003     3.0552708243      2                       
  15.1858497186    15.1858493117     0.0000000000      2                       
  10.7017509345    16.2028430225     3.0552708243      2                       
   8.9681981904     8.9681979501     6.1105416487      1                       
  13.4522972856    13.4522969252     9.1658124730      1                       
  11.7187445252    11.7187442112     6.1105416487      2                       
  16.2028434730    10.7017506641     9.1658124730      2                       
  15.1858498823    15.1858494754     6.1105416487      2                       
  10.7017510982    16.2028431862     9.1658124730      2                       
%endblock AtomicCoordinatesAndAtomicSpecies                                    
 
SpinPolarized              F     # Default value
NonCollinearSpin              F     # Default value
LongOutput              F     # Default value
NumberOfSpecies                        2
WriteDenchar              F     # Default value
WriteMullikenPop              0     # Default value
MeshCutoff          250.0000000             Ry
# Above item originally: MeshCutoff          250.0000000     Ry        
NetCharge          0.000000000         # Default value
MaxSCFIterations                       50
DM.NumberPulay                        4
DM.MixSCF1              F     # Default value
DM.PulayOnFile              F     # Default value
DM.MixingWeight         0.2000000000    
DM.NumberKick              0     # Default value
DM.KickMixingWeight         0.5000000000         # Default value
DM.Tolerance         0.1000000000E-03
UseSaveData              T
DM.UseSaveDM              T
NeglNonOverlapInt              F     # Default value
SolutionMethod     diagon                                                                                                                              
DiagMemory          2.000000000         # Default value
DiagScale          1.000000000         # Default value
TryMemoryIncrease              T     # Default value
ElectronicTemperature         0.1900069269E-02         Ry
# Above item originally: ElectronicTemperature          300.0000000     K         
FixSpin              F     # Default value
ON.MaxNumIter           1000     # Default value
ON.etol         0.1000000000E-07     # Default value
ON.eta          0.000000000     Ry     # Default value
On.RcLWF          9.500000000     Bohr     # Default value
UseSaveData              T
ON.UseSaveLWF              T     # Default value
ON.functional     kim               # Default value
ON.ChemicalPotential              F     # Default value
ON.ChemicalPotentialUse              F     # Default value
ON.ChemicalPotentialRc          9.500000000     Bohr     # Default value
ON.ChemicalPotentialTemperature         0.5000000075E-01 Ry     # Default value
ON.ChemicalPotentialOrder            100     # Default value
MD.VariableCell              F     # Default value
MD.TypeOfRun     FC                                                                                                                                  
MD.NumCGsteps              0     # Default value
MD.MaxCGDispl         0.2000000000     Bohr     # Default value
MD.MaxForceTol         0.1555740000E-02 Ry/Bohr     # Default value
MD.MaxStressTol         0.6797730000E-04 Ry/Bohr**3     # Default value
MD.InitialTimeStep              1     # Default value
MD.FinalTimeStep              1     # Default value
MD.LengthTimeStep          1.000000000     fs     # Default value
MD.Quench              F     # Default value
MD.InitialTemperature          0.000000000     K     # Default value
MD.TargetTemperature          0.000000000     K     # Default value
MD.TargetPressure          0.000000000     Ry/Bohr**3     # Default value
MD.NoseMass          100.0000000     Ry*fs**2     # Default value
MD.ParrinelloRahmanMass          100.0000000     Ry*fs**2     # Default value
MD.AnnealOption     TemperatureAndPressure     # Default value
MD.TauRelax          100.0000000     fs     # Default value
MD.BulkModulus          100.0000000         # Default value
MD.FCDispl         0.1000000000E-01       Bohr
# Above item originally: MD.FCDispl         0.1000000000E-01 Bohr      
MD.BornCharge              0     # Default value
MD.FCfirst                       79
MD.FClast                       84
Harris_functional              F     # Default value
WriteKpoints              F     # Default value
WriteForces              F     # Default value
WriteDM              T     # Default value
WriteEigenvalues              F     # Default value
WriteBands              F     # Default value
WriteKbands              F     # Default value
WriteCoorStep              F     # Default value
WriteCoorInitial              T     # Default value
WriteMDhistory              F     # Default value
WriteMDXmol              T     # Default value
UseSaveData              T
MD.UseSaveXV              T     # Default value
SaveHS              F     # Default value
FixAuxillaryCell              F     # Default value
ReInitialiseDM              F     # Default value
SignatureRecords              F     # Default value
MullikenInSCF              F     # Default value
WarningMinimumAtomicDistance          1.000000000     Bohr     # Default value
SystemLabel     SnO2FC                                                                                                                              
processorY              2     # Default value
blocksize              8     # Default value
kgrid_cutoff          28.34590317           Bohr
# Above item originally: kgrid_cutoff          15.00000000     Ang       
LongOutput              F     # Default value
WriteWaveFunctions              F     # Default value
SystemLabel     SnO2FC                                                                                                                              
AtomicCoordinatesFormat     NotScaledCartesianBohr                                                                                                              
AtomCoorFormatOut     NotScaledCartesianBohr     # Default value
LatticeConstant          8.968197786           Bohr
# Above item originally: LatticeConstant          8.968197786     Bohr      
SystemLabel     SnO2FC                                                                                                                              
xc.functional     LDA                                                                                                                                 
xc.authors     CA                                                                                                                                  
Harris_functional              F     # Default value
LatticeConstant          8.968197786           Bohr
# Above item originally: LatticeConstant          8.968197786     Bohr      

%block LatticeVectors                                                          
   3.0000000000     0.0000000000     0.0000000000                              
   0.0000000804     3.0000000000     0.0000000000                              
   0.0000000548     0.0000000548     2.0440701000                              
%endblock LatticeVectors                                                       
 

%block LatticeVectors                                                          
   3.0000000000     0.0000000000     0.0000000000                              
   0.0000000804     3.0000000000     0.0000000000                              
   0.0000000548     0.0000000548     2.0440701000                              
%endblock LatticeVectors                                                       
 
DirectPhi              F     # Default value
ParallelOverK              F     # Default value
LatticeConstant          8.968197786           Bohr
# Above item originally: LatticeConstant          8.968197786     Bohr      

%block LatticeVectors                                                          
   3.0000000000     0.0000000000     0.0000000000                              
   0.0000000804     3.0000000000     0.0000000000                              
   0.0000000548     0.0000000548     2.0440701000                              
%endblock LatticeVectors                                                       
 

%block LatticeVectors                                                          
   3.0000000000     0.0000000000     0.0000000000                              
   0.0000000804     3.0000000000     0.0000000000                              
   0.0000000548     0.0000000548     2.0440701000                              
%endblock LatticeVectors                                                       
 
SingleExcitation              F     # Default value
OccupationFunction     FD     # Default value
OccupationFunction     FD     # Default value
SystemLabel     SnO2FC                                                                                                                              
LatticeConstant          8.968197786           Bohr
# Above item originally: LatticeConstant          8.968197786     Bohr      

%block LatticeVectors                                                          
   3.0000000000     0.0000000000     0.0000000000                              
   0.0000000804     3.0000000000     0.0000000000                              
   0.0000000548     0.0000000548     2.0440701000                              
%endblock LatticeVectors                                                       
 

%block LatticeVectors                                                          
   3.0000000000     0.0000000000     0.0000000000                              
   0.0000000804     3.0000000000     0.0000000000                              
   0.0000000548     0.0000000548     2.0440701000                              
%endblock LatticeVectors                                                       
 
LatticeConstant          8.968197786           Bohr
# Above item originally: LatticeConstant          8.968197786     Bohr      

%block LatticeVectors                                                          
   3.0000000000     0.0000000000     0.0000000000                              
   0.0000000804     3.0000000000     0.0000000000                              
   0.0000000548     0.0000000548     2.0440701000                              
%endblock LatticeVectors                                                       
 

%block LatticeVectors                                                          
   3.0000000000     0.0000000000     0.0000000000                              
   0.0000000804     3.0000000000     0.0000000000                              
   0.0000000548     0.0000000548     2.0440701000                              
%endblock LatticeVectors                                                       
 
LatticeConstant          8.968197786           Bohr
# Above item originally: LatticeConstant          8.968197786     Bohr      

%block LatticeVectors                                                          
   3.0000000000     0.0000000000     0.0000000000                              
   0.0000000804     3.0000000000     0.0000000000                              
   0.0000000548     0.0000000548     2.0440701000                              
%endblock LatticeVectors                                                       
 

%block LatticeVectors                                                          
   3.0000000000     0.0000000000     0.0000000000                              
   0.0000000804     3.0000000000     0.0000000000                              
   0.0000000548     0.0000000548     2.0440701000                              
%endblock LatticeVectors                                                       
 
LatticeConstant          8.968197786           Bohr
# Above item originally: LatticeConstant          8.968197786     Bohr      

%block LatticeVectors                                                          
   3.0000000000     0.0000000000     0.0000000000                              
   0.0000000804     3.0000000000     0.0000000000                              
   0.0000000548     0.0000000548     2.0440701000                              
%endblock LatticeVectors                                                       
 

%block LatticeVectors                                                          
   3.0000000000     0.0000000000     0.0000000000                              
   0.0000000804     3.0000000000     0.0000000000                              
   0.0000000548     0.0000000548     2.0440701000                              
%endblock LatticeVectors                                                       
 
LatticeConstant          8.968197786           Bohr