%nproc=8
$RunGauss
%Mem=1900MB
%Chk=fe4gd2ds5
#p UB3LYP/GEN GFPRINT gfoldprint SCF=(direct,conver=7) NOSYMM
   SCFCYC=150 VSHIFT=400 5D POP=full nofmm Integral=DKH
     guess=check 

Sistema fe4gd2

0 7
 Gd      -16.63190       47.30880       15.93760
 Gd      -23.57370       47.95790       14.96320
 Fe      -20.27470       48.35350       16.76520
 Fe      -19.93100       46.91310       14.13550
 Fe      -21.59470       45.50100       16.33880
 Fe      -18.61100       49.76570       14.56200
  O      -21.38370       47.40870       15.40730
  O      -18.82200       47.85800       15.49340
  C      -13.91120       47.04600       16.62170
  C      -12.49330       47.00090       17.19760
  C      -12.59790       47.64830       18.59700
  C      -12.00530       45.56240       17.32450
  C      -11.53950       47.81010       16.30180
  H      -11.71270       47.65760       19.01990
  H      -13.21910       47.13110       19.15070
  H      -12.92720       48.56720       18.50870
  H      -11.94110       45.15900       16.43450
  H      -12.63730       45.04890       17.87030
  H      -11.12210       45.55420       17.75140
  H      -11.48740       47.38950       15.41800
  H      -10.64810       47.82950       16.70690
  H      -11.87760       48.72540       16.20920
  O      -14.70860       46.08930       16.84200
  O      -14.30690       48.05640       15.97140
  C      -26.29450       48.22060       14.27900
  C      -27.71240       48.26580       13.70310
  C      -27.60780       47.61840       12.30370
  C      -28.20040       49.70430       13.57630
  C      -28.66610       47.45660       14.59890
  H      -28.49290       47.60910       11.88080
  H      -26.98660       48.13560       11.75000
  H      -27.27850       46.69950       12.39200
  H      -28.26460       50.10770       14.46620
  H      -27.56840       50.21780       13.03040
  H      -29.08360       49.71250       13.14930
  H      -28.71830       47.87720       15.48270
  H      -29.55760       47.43720       14.19380
  H      -28.32810       46.54130       14.69160
  O      -25.49710       49.17740       14.05870
  O      -25.89880       47.21030       14.92930
  C      -22.98340       49.00850       18.01720
  C      -23.72910       49.64370       19.19930
  C      -24.86060       50.49410       18.63460
  C      -24.29340       48.50690       20.07480
  C      -22.80060       50.49280       20.04100
  H      -24.48600       51.21590       18.08920
  H      -25.44390       49.93380       18.07880
  H      -25.38050       50.87630       19.37140
  H      -24.77050       48.88960       20.84000
  H      -24.91190       47.96280       19.54300
  H      -23.55810       47.94420       20.39280
  H      -22.45110       51.23040       19.49920
  H      -23.29270       50.85520       20.80800
  H      -22.05510       49.94280       20.36200
  O      -21.74530       49.22680       17.89710
  O      -23.66150       48.28590       17.24300
  C      -17.22230       46.25820       12.88350
  C      -16.47660       45.62300       11.70140
  C      -15.34500       44.77260       12.26620
  C      -15.91230       46.75970       10.82600
  C      -17.40510       44.77390       10.85970
  H      -15.71970       44.05080       12.81150
  H      -14.76180       45.33280       12.82190
  H      -14.82520       44.39030       11.52940
  H      -15.43520       46.37710       10.06070
  H      -15.29380       47.30390       11.35770
  H      -16.64760       47.32250       10.50790
  H      -17.75460       44.03620       11.40160
  H      -16.91290       44.41150       10.09280
  H      -18.15060       45.32390       10.53880
  O      -18.46040       46.03980       13.00360
  O      -16.54420       46.98080       13.65770
  C      -17.81540       48.94570       18.61490
  C      -17.42860       49.55320       19.96480
  C      -16.12220       50.33190       19.84530
  C      -18.53650       50.44590       20.51710
  C      -17.20540       48.35910       20.91080
  H      -15.42160       49.74190       19.49780
  H      -16.24670       51.08850       19.23360
  H      -15.85970       50.66630       20.72700
  H      -18.68050       51.20190       19.90800
  H      -19.36640       49.92740       20.59300
  H      -18.27780       50.78020       21.39870
  H      -16.49760       47.78450       20.55140
  H      -16.94040       48.68910       21.79410
  H      -18.03600       47.84590       20.98860
  O      -19.03880       48.93500       18.29540
  O      -16.88540       48.46980       17.91840
  C      -22.39030       46.32090       12.28580
  C      -22.77710       45.71350       10.93590
  C      -24.08350       44.93480       11.05540
  C      -21.66910       44.82080       10.38360
  C      -23.00030       46.90760        9.99000
  H      -24.78410       45.52480       11.40290
  H      -23.95900       44.17820       11.66720
  H      -24.34600       44.60040       10.17380
  H      -21.52520       44.06480       10.99270
  H      -20.83930       45.33930       10.30780
  H      -21.92790       44.48650        9.50200
  H      -23.70810       47.48220       10.34930
  H      -23.26530       46.57760        9.10660
  H      -22.16970       47.42080        9.91210
  O      -21.16690       46.33170       12.60530
  O      -23.32030       46.79690       12.98230
  C      -17.59750       52.69210       14.07250
  C      -18.31930       52.32820       12.80100
  C      -17.09800       51.65190       16.23880
  C      -16.09220       50.64450       15.72020
  C      -19.39220       52.43660       15.72680
  C      -20.14350       51.38560       16.52800
  C      -19.48640       50.46400       11.76900
  C      -19.68990       48.96820       11.87170
  C      -17.02980       50.32660       12.09820
  C      -16.76920       50.45530       10.60190
  H      -16.42840       51.89860        9.37650
  H      -16.62730       52.52710       13.96530
  H      -17.72940       53.65350       14.27010
  H      -19.24960       52.66430       12.83940
  H      -17.86940       52.75650       12.02900
  H      -17.52160       51.31210       17.06810
  H      -16.64470       52.50660       16.44740
  H      -15.51490       51.06780       15.03820
  H      -15.51720       50.33050       16.46300
  H      -19.95710       52.75080       14.97680
  H      -19.19010       53.21360       16.30510
  H      -19.75300       51.30750       17.43530
  H      -21.09560       51.64440       16.61990
  H      -19.31500       50.71560       10.82700
  H      -20.30030       50.93750       12.07300
  H      -20.58540       48.71650       11.53200
  H      -19.00420       48.48900       11.34360
  H      -17.05760       49.38930       12.25290
  H      -15.93380       49.97680       10.36640
  H      -17.51410       50.04680       10.09640
  N      -18.13010       51.86930       15.19550
  N      -18.32970       50.85580       12.61580
  O      -16.78850       49.54010       15.14810
  O      -20.04030       50.13790       15.84070
  O      -19.57260       48.64220       13.24720
  O      -16.65200       51.79830       10.26510
  H      -16.31190       50.69010       12.60240
  C      -22.60820       42.57460       16.82820
  C      -21.88640       42.93840       18.09970
  C      -23.10770       43.61480       14.66190
  C      -24.11350       44.62220       15.18050
  C      -20.81350       42.83000       15.17390
  C      -20.06220       43.88110       14.37270
  C      -20.71930       44.80260       19.13170
  C      -20.51580       46.29850       19.02910
  C      -23.17590       44.94010       18.80260
  C      -23.43650       44.81140       20.29890
  H      -23.77730       43.36800       21.52420
  H      -23.57830       42.73960       16.93540
  H      -22.47620       41.61310       16.63060
  H      -20.95610       42.60240       18.06130
  H      -22.33630       42.51010       18.87170
  H      -22.68410       43.95460       13.83260
  H      -23.56100       42.76000       14.45340
  H      -24.69080       44.19880       15.86260
  H      -24.68850       44.93620       14.43770
  H      -20.24860       42.51590       15.92390
  H      -21.01560       42.05300       14.59560
  H      -20.45270       43.95920       13.46550
  H      -19.11010       43.62220       14.28080
  H      -20.89060       44.55110       20.07370
  H      -19.90540       44.32920       18.82770
  H      -19.62030       46.55020       19.36870
  H      -21.20150       46.77770       19.55710
  H      -23.14770       45.87760       18.64710
  H      -24.27180       45.28990       20.53430
  H      -22.69150       45.21990       20.80430
  N      -22.07550       43.39740       15.70520
  N      -21.87600       44.41090       18.28490
  O      -23.41720       45.72660       15.75260
  O      -20.16540       45.12880       15.06000
  O      -20.63310       46.62450       17.65350
  O      -23.55370       43.46840       20.63560
  H      -23.89380       44.57760       18.29730
  N      -22.55230       50.56330       14.14860
  O      -23.05280       50.36650       15.30360
  O      -22.55260       49.57650       13.35830
  O      -22.09710       51.65420       13.83010
  N      -17.65340       44.70330       16.75210
  O      -17.15290       44.90020       15.59710
  O      -17.65310       45.69010       17.54240
  O      -18.10860       43.61250       17.07060

Fe 0
TZV
****
C 0
TZV
****
O 0
TZV
****
H 0
TZV
****
N 0
TZV
****
Gd 0
 S  10  1.00
  0.2943490800D+07  0.1126700000D-02
  0.9844484800D+06  0.2341100000D-02
  0.3474404900D+06  0.4821800000D-02
  0.1278461200D+06  0.9857300000D-02
  0.4894512000D+05  0.2035500000D-01
  0.1924212700D+05  0.4290980000D-01
  0.7793966900D+04  0.8963520000D-01
  0.3263905100D+04  0.1784221000D+00
  0.1405761700D+04  0.3036157000D+00
  0.6243279500D+03  0.3426366000D+00
 S  6  1.00
  0.3263905100D+04 -0.7418610000D-01
  0.1405761700D+04 -0.1420661000D+00
  0.6243279500D+03 -0.2116276000D+00
  0.2860548000D+03 -0.8062900000D-01
  0.1174227000D+03  0.4603482000D+00
  0.5371375600D+02  0.6012844000D+00
 S  4  1.00
  0.1174227000D+03 -0.3556700000D+00
  0.5371375600D+02 -0.6317752000D+00
  0.2126821000D+02  0.3310220000D+00
  0.1089849400D+02  0.8923129000D+00
 S  3  1.00
  0.2126821000D+02  0.2822343000D+00
  0.1089849400D+02  0.1042976500D+01
  0.4171980700D+01 -0.4269800000D+00
 S  2  1.00
  0.4171980700D+01 -0.3008405000D+00
  0.2117608200D+01 -0.9275494000D+00
 S  2  1.00
  0.2117608200D+01  0.3000578000D+00
  0.6184811400D+00 -0.2686411000D+00
 S  1  1.00
  0.2982494800D+00  0.1000000000D+01
 S  1  1.00
  0.5629819400D-01  0.1000000000D+01
 S  1  1.00
 2.4044171D-02      0.1000000000D+01
 P  8  1.00  
  0.3809330300D+05  0.7086000000D-03
  0.1407825600D+05  0.2003400000D-02
  0.5704808900D+04  0.5694700000D-02
  0.2477832400D+04  0.1627470000D-01
  0.1140941500D+04  0.4399200000D-01
  0.5531079600D+03  0.1066400000D+00
  0.2788802600D+03  0.2142994000D+00
  0.1452082000D+03  0.3219996000D+00
 P  4  1.00
  0.1452082000D+03 -0.1831526000D+00
  0.7749977600D+02 -0.1607072000D+00
  0.4179528200D+02  0.8246640000D-01
  0.2229816200D+02  0.4436702000D+00
 P  4  1.00
  0.2229816200D+02  0.3144850000D+00
  0.1209928600D+02  0.3502528000D+00
  0.6463335400D+01 -0.1787283000D+00
  0.3330117600D+01 -0.6405199000D+00
 P  2  1.00
  0.1691375700D+01 -0.1995020000D+00
  0.7489175900D+00  0.4661997000D+00
 P  1  1.00
  0.3406631800D+00  0.1000000000D+01
 P  1  1.00
  1.4035439D-01     0.1000000000D+01
 D  6  1.00
  0.2308597500D+03  0.3709140000D-01
  0.1053543000D+03  0.1186398000D+00
  0.5095481300D+02  0.2637820000D+00
  0.2536026000D+02  0.3843876000D+00
  0.1287101100D+02  0.3078746000D+00
  0.6446089300D+01  0.9890990000D-01
 D  4  1.00
  0.2536026000D+02 -0.1760720000D+00
  0.6446089300D+01  0.2763074000D+00
  0.3143063100D+01  0.5102379000D+00
  0.1471204000D+01  0.3204650000D+00
 D  2  1.00
  0.6038934300D+00  0.3265730000D+00
  0.2290571500D+00  0.5549350000D+00
 D  1  1.00
  0.7909658500D-01  0.1000000000D+01
 F  4  1.00
  0.1259157300D+02 -0.1199382000D+00
  0.6104244200D+01 -0.2377827000D+00
  0.2886978300D+01 -0.3367312000D+00
  0.1307156600D+01 -0.3437236
 F  1  1.00
  0.5512438300D+00  0.1000000000D+01
 F  1  1.00
 2.0550452D-01      0.1000000000D+01
****

