title "fullerene dft"
memory 900 mb
geometry
C      -1.16382688      -1.60187028       0.38030945
C       1.16382688       1.60187028      -0.38030945
C      -0.72374303      -0.99614683       1.65199862
C       0.72374303       0.99614683      -1.65199862
C       0.72374303      -0.99614683       1.65199862
C      -0.72374303       0.99614683      -1.65199862
C       1.16382688      -1.60187028       0.38030945
C      -1.16382688       1.60187028      -0.38030945
C       0.00000000       1.98002055       0.38030945
C      -0.00000000      -1.98002055      -0.38030945
C       1.88311145       0.61186000       0.38030945
C      -1.88311145      -0.61186000      -0.38030945
C      -1.17104083       0.38049423       1.65199862
C       1.17104083      -0.38049423      -1.65199862
C       1.17104083       0.38049423       1.65199862
C      -1.17104083      -0.38049423      -1.65199862
C       1.88311145      -0.61186000      -0.38030945
C      -1.88311145       0.61186000       0.38030945
C       0.00000000       1.23130519       1.65199862
C      -0.00000000      -1.23130519      -1.65199862
end
basis spherical
 C library cc-pVTZ
end
scf
 semidirect memsize 10000000 filesize 500000
end
charge 2
dft
 iterations 99
 CONVERGENCE density 1.0e-6
 CONVERGENCE gradient 1.0e-6
 grid medium
 xc b3lyp
end
task dft frequencies
