  Ce Ce Ce Ce Ce O                      
   1.01666975400000     
    13.2272388934306360    7.6367501927269998    0.0000000000000000
    -9.9204075194380650    5.7275501445449342    0.0000000000000000
     0.0000000000000000    0.0000000000000000   25.7942000000000000
   36  71
Selective dynamics
Direct
  0.6789918861148012  0.2757299092538206  0.2704846821487589   T   T   T
  0.4259528677363488  0.2685003406128714  0.2717316927613876   T   T   T
  0.1727518815112294  0.2657096509759845  0.2712265886467556   T   T   T
  0.9284397416307772  0.2733986566276776  0.2713807795416586   T   T   T
  0.6770740521320394  0.6045971647649965  0.2728438581017291   T   T   T
  0.4202788014636929  0.5873736911173856  0.2731615569698416   T   T   T
  0.1772047412362886  0.6055788715907287  0.2728211349661124   T   T   T
  0.9275741562874672  0.6071847735825328  0.2711131900734121   T   T   T
  0.6901929118261839  0.9495908995959527  0.2729897072903761   T   T   T
  0.4221781076285315  0.9477553781705133  0.2729070411443140   T   T   T
  0.1726333165218587  0.9365140104759980  0.2707164871354951   T   T   T
  0.9294342999155069  0.9367914001865335  0.2703905239222283   T   T   T
  0.2596997241792742  0.1597127574498373  0.1511440303792964   T   T   T
  0.0098664105504200  0.1595327091905517  0.1504557586963258   T   T   T
  0.7599063002152207  0.1609257031628252  0.1509376078734476   T   T   T
  0.5106122557606216  0.1604188943308968  0.1506182951722543   T   T   T
  0.2594922458540126  0.4934520696353316  0.1514371108114634   T   T   T
  0.0096373535443168  0.4928372418054680  0.1511422771478340   T   T   T
  0.7608284171734639  0.4939009886252367  0.1508074351202900   T   T   T
  0.5100613099613529  0.4931877139824814  0.1516642533100246   T   T   T
  0.2595190816092467  0.8258029161130174  0.1511671884303782   T   T   T
  0.0105476634693990  0.8274296709734345  0.1495246415851425   T   T   T
  0.7598560559701660  0.8262059896674885  0.1510973161760308   T   T   T
  0.5102123966775213  0.8261340878409700  0.1459946168881953   T   T   T
  0.0934000000000026  0.0490700000000004  0.0302199999999999   F   F   F
  0.8434000000000026  0.0490700000000004  0.0302199999999999   F   F   F
  0.5934000000000026  0.0490700000000004  0.0302199999999999   F   F   F
  0.3434000000000026  0.0490700000000004  0.0302199999999999   F   F   F
  0.0934000000000026  0.3824100000000001  0.0302199999999999   F   F   F
  0.8434000000000026  0.3824100000000001  0.0302199999999999   F   F   F
  0.5934000000000026  0.3824100000000001  0.0302199999999999   F   F   F
  0.3434000000000026  0.3824100000000001  0.0302199999999999   F   F   F
  0.0934000000000026  0.7157399999999967  0.0302199999999999   F   F   F
  0.8434000000000026  0.7157399999999967  0.0302199999999999   F   F   F
  0.5934000000000026  0.7157399999999967  0.0302199999999999   F   F   F
  0.3434000000000026  0.7157399999999967  0.0302199999999999   F   F   F
  0.5873056881742913  0.0320518152169991  0.2931495923669408   T   T   T
  0.0921427263548148  0.0473427164372195  0.3003609509105215   T   T   T
  0.3455269145771601  0.0533832888915826  0.3037699730767958   T   T   T
  0.0873036855443912  0.3658724799414647  0.3020703029936522   T   T   T
  0.8399980997328272  0.3801782911903993  0.3016760736682359   T   T   T
  0.3409559176364829  0.3760073816077157  0.3043083337972578   T   T   T
  0.8447065350574752  0.0535024713052990  0.3034267770099500   T   T   T
  0.5905442072011385  0.3652515465865346  0.3022691557441958   T   T   T
  0.3689066700956914  0.7337857751739405  0.2927343620447197   T   T   T
  0.5816646170136612  0.7344539459726462  0.2925863144785034   T   T   T
  0.0879477819619784  0.7251896101914046  0.3015275475689629   T   T   T
  0.8554602872398807  0.7233063498710414  0.3013084470998814   T   T   T
  0.2596583172491612  0.1589170809041022  0.2403566005726193   T   T   T
  0.5049984291392628  0.1581979417343656  0.2390474055123313   T   T   T
  0.0080842530529725  0.1554555535945192  0.2391830462980257   T   T   T
  0.7645625218773009  0.1627211375034315  0.2402071335449590   T   T   T
  0.5022320255994992  0.4831399244683344  0.2414730212907965   T   T   T
  0.0059485359420012  0.4910900465341967  0.2405752128769731   T   T   T
  0.2605967190323361  0.4830732066017908  0.2410447118568196   T   T   T
  0.0111805439523862  0.8298723860585129  0.2378526732561016   T   T   T
  0.7670659006994782  0.8384114199325962  0.2405448396205018   T   T   T
  0.2620606351907438  0.8387191114729869  0.2404365046713842   T   T   T
  0.7617513940169702  0.4903530829937906  0.2393263537636827   T   T   T
  0.1753186241879200  0.2687606670241543  0.1810468685345086   T   T   T
  0.4257269988373206  0.2706394655285241  0.1799959180443353   T   T   T
  0.1790995175914832  0.6063097261771343  0.1806923722064531   T   T   T
  0.6755088744530189  0.2687022021472170  0.1813127449950295   T   T   T
  0.4333228820291565  0.6213515545024558  0.1861540595815474   T   T   T
  0.9279727165806746  0.2717607864627464  0.1804125143444456   T   T   T
  0.6755945069267687  0.6060785923712132  0.1804944774087726   T   T   T
  0.9267075629000084  0.6049430056883766  0.1803915232507937   T   T   T
  0.6636185203221244  0.9304266637610435  0.1862332507739670   T   T   T
  0.1772610845317731  0.9388125288217157  0.1797007086345986   T   T   T
  0.9262031093202652  0.9366575058495183  0.1791449413858034   T   T   T
  0.4333070435614085  0.9273178854887857  0.1858364130751118   T   T   T
  0.5934733483031992  0.0492318153746568  0.1183968760524458   T   T   T
  0.0942062638214744  0.0503957018248107  0.1190916869220991   T   T   T
  0.8385323687995622  0.0460437681333322  0.1211461012230691   T   T   T
  0.3456681814240553  0.0453800106701268  0.1211624779452258   T   T   T
  0.0948452848335390  0.3831308815913242  0.1199926126186949   T   T   T
  0.3450388462176479  0.3882182417980032  0.1214844039744799   T   T   T
  0.0948983442991410  0.7156024083311137  0.1198697193510866   T   T   T
  0.5931111122156281  0.3819085849572957  0.1201906074383092   T   T   T
  0.3434605524317055  0.7153480427126578  0.1186175438089004   T   T   T
  0.8423348123965898  0.3809263673135446  0.1199822795043949   T   T   T
  0.5933432334403408  0.7158894142198119  0.1187107187161926   T   T   T
  0.8415853885198166  0.7143480706514472  0.1195383886861441   T   T   T
  0.2600699999999989  0.1601900000000001  0.0604299999999967   F   F   F
  0.0100699999999989  0.4935199999999966  0.0604299999999967   F   F   F
  0.5100699999999989  0.1601900000000001  0.0604299999999967   F   F   F
  0.0100699999999989  0.1601900000000001  0.0604299999999967   F   F   F
  0.7600699999999989  0.1601900000000001  0.0604299999999967   F   F   F
  0.5100699999999989  0.4935199999999966  0.0604299999999967   F   F   F
  0.7600699999999989  0.4935199999999966  0.0604299999999967   F   F   F
  0.2600699999999989  0.4935199999999966  0.0604299999999967   F   F   F
  0.0100699999999989  0.8268500000000003  0.0604299999999967   F   F   F
  0.7600699999999989  0.8268500000000003  0.0604299999999967   F   F   F
  0.2600699999999989  0.8268500000000003  0.0604299999999967   F   F   F
  0.5100699999999989  0.8268500000000003  0.0604299999999967   F   F   F
  0.1767400000000023  0.2712999999999965  0.0000000000000000   F   F   F
  0.9267400000000023  0.2712999999999965  0.0000000000000000   F   F   F
  0.4267400000000023  0.2712999999999965  0.0000000000000000   F   F   F
  0.6767400000000023  0.2712999999999965  0.0000000000000000   F   F   F
  0.4267400000000023  0.6046300000000002  0.0000000000000000   F   F   F
  0.1767400000000023  0.9379599999999968  0.0000000000000000   F   F   F
  0.6767400000000023  0.6046300000000002  0.0000000000000000   F   F   F
  0.1767400000000023  0.6046300000000002  0.0000000000000000   F   F   F
  0.9267400000000023  0.6046300000000002  0.0000000000000000   F   F   F
  0.6767400000000023  0.9379599999999968  0.0000000000000000   F   F   F
  0.9267400000000023  0.9379599999999968  0.0000000000000000   F   F   F
  0.4267400000000023  0.9379599999999968  0.0000000000000000   F   F   F
 
  0.00000000E+00  0.00000000E+00  0.00000000E+00
  0.00000000E+00  0.00000000E+00  0.00000000E+00
  0.00000000E+00  0.00000000E+00  0.00000000E+00
  0.00000000E+00  0.00000000E+00  0.00000000E+00
  0.00000000E+00  0.00000000E+00  0.00000000E+00
  0.00000000E+00  0.00000000E+00  0.00000000E+00
  0.00000000E+00  0.00000000E+00  0.00000000E+00
  0.00000000E+00  0.00000000E+00  0.00000000E+00
  0.00000000E+00  0.00000000E+00  0.00000000E+00
  0.00000000E+00  0.00000000E+00  0.00000000E+00
  0.00000000E+00  0.00000000E+00  0.00000000E+00
  0.00000000E+00  0.00000000E+00  0.00000000E+00
  0.00000000E+00  0.00000000E+00  0.00000000E+00
  0.00000000E+00  0.00000000E+00  0.00000000E+00
  0.00000000E+00  0.00000000E+00  0.00000000E+00
  0.00000000E+00  0.00000000E+00  0.00000000E+00
  0.00000000E+00  0.00000000E+00  0.00000000E+00
  0.00000000E+00  0.00000000E+00  0.00000000E+00
  0.00000000E+00  0.00000000E+00  0.00000000E+00
  0.00000000E+00  0.00000000E+00  0.00000000E+00
  0.00000000E+00  0.00000000E+00  0.00000000E+00
  0.00000000E+00  0.00000000E+00  0.00000000E+00
  0.00000000E+00  0.00000000E+00  0.00000000E+00
  0.00000000E+00  0.00000000E+00  0.00000000E+00
  0.00000000E+00  0.00000000E+00  0.00000000E+00
  0.00000000E+00  0.00000000E+00  0.00000000E+00
  0.00000000E+00  0.00000000E+00  0.00000000E+00
  0.00000000E+00  0.00000000E+00  0.00000000E+00
  0.00000000E+00  0.00000000E+00  0.00000000E+00
  0.00000000E+00  0.00000000E+00  0.00000000E+00
  0.00000000E+00  0.00000000E+00  0.00000000E+00
  0.00000000E+00  0.00000000E+00  0.00000000E+00
  0.00000000E+00  0.00000000E+00  0.00000000E+00
  0.00000000E+00  0.00000000E+00  0.00000000E+00
  0.00000000E+00  0.00000000E+00  0.00000000E+00
  0.00000000E+00  0.00000000E+00  0.00000000E+00
  0.00000000E+00  0.00000000E+00  0.00000000E+00
  0.00000000E+00  0.00000000E+00  0.00000000E+00
  0.00000000E+00  0.00000000E+00  0.00000000E+00
  0.00000000E+00  0.00000000E+00  0.00000000E+00
  0.00000000E+00  0.00000000E+00  0.00000000E+00
  0.00000000E+00  0.00000000E+00  0.00000000E+00
  0.00000000E+00  0.00000000E+00  0.00000000E+00
  0.00000000E+00  0.00000000E+00  0.00000000E+00
  0.00000000E+00  0.00000000E+00  0.00000000E+00
  0.00000000E+00  0.00000000E+00  0.00000000E+00
  0.00000000E+00  0.00000000E+00  0.00000000E+00
  0.00000000E+00  0.00000000E+00  0.00000000E+00
  0.00000000E+00  0.00000000E+00  0.00000000E+00
  0.00000000E+00  0.00000000E+00  0.00000000E+00
  0.00000000E+00  0.00000000E+00  0.00000000E+00
  0.00000000E+00  0.00000000E+00  0.00000000E+00
  0.00000000E+00  0.00000000E+00  0.00000000E+00
  0.00000000E+00  0.00000000E+00  0.00000000E+00
  0.00000000E+00  0.00000000E+00  0.00000000E+00
  0.00000000E+00  0.00000000E+00  0.00000000E+00
  0.00000000E+00  0.00000000E+00  0.00000000E+00
  0.00000000E+00  0.00000000E+00  0.00000000E+00
  0.00000000E+00  0.00000000E+00  0.00000000E+00
  0.00000000E+00  0.00000000E+00  0.00000000E+00
  0.00000000E+00  0.00000000E+00  0.00000000E+00
  0.00000000E+00  0.00000000E+00  0.00000000E+00
  0.00000000E+00  0.00000000E+00  0.00000000E+00
  0.00000000E+00  0.00000000E+00  0.00000000E+00
  0.00000000E+00  0.00000000E+00  0.00000000E+00
  0.00000000E+00  0.00000000E+00  0.00000000E+00
  0.00000000E+00  0.00000000E+00  0.00000000E+00
  0.00000000E+00  0.00000000E+00  0.00000000E+00
  0.00000000E+00  0.00000000E+00  0.00000000E+00
  0.00000000E+00  0.00000000E+00  0.00000000E+00
  0.00000000E+00  0.00000000E+00  0.00000000E+00
  0.00000000E+00  0.00000000E+00  0.00000000E+00
  0.00000000E+00  0.00000000E+00  0.00000000E+00
  0.00000000E+00  0.00000000E+00  0.00000000E+00
  0.00000000E+00  0.00000000E+00  0.00000000E+00
  0.00000000E+00  0.00000000E+00  0.00000000E+00
  0.00000000E+00  0.00000000E+00  0.00000000E+00
  0.00000000E+00  0.00000000E+00  0.00000000E+00
  0.00000000E+00  0.00000000E+00  0.00000000E+00
  0.00000000E+00  0.00000000E+00  0.00000000E+00
  0.00000000E+00  0.00000000E+00  0.00000000E+00
  0.00000000E+00  0.00000000E+00  0.00000000E+00
  0.00000000E+00  0.00000000E+00  0.00000000E+00
  0.00000000E+00  0.00000000E+00  0.00000000E+00
  0.00000000E+00  0.00000000E+00  0.00000000E+00
  0.00000000E+00  0.00000000E+00  0.00000000E+00
  0.00000000E+00  0.00000000E+00  0.00000000E+00
  0.00000000E+00  0.00000000E+00  0.00000000E+00
  0.00000000E+00  0.00000000E+00  0.00000000E+00
  0.00000000E+00  0.00000000E+00  0.00000000E+00
  0.00000000E+00  0.00000000E+00  0.00000000E+00
  0.00000000E+00  0.00000000E+00  0.00000000E+00
  0.00000000E+00  0.00000000E+00  0.00000000E+00
  0.00000000E+00  0.00000000E+00  0.00000000E+00
  0.00000000E+00  0.00000000E+00  0.00000000E+00
  0.00000000E+00  0.00000000E+00  0.00000000E+00
  0.00000000E+00  0.00000000E+00  0.00000000E+00
  0.00000000E+00  0.00000000E+00  0.00000000E+00
  0.00000000E+00  0.00000000E+00  0.00000000E+00
  0.00000000E+00  0.00000000E+00  0.00000000E+00
  0.00000000E+00  0.00000000E+00  0.00000000E+00
  0.00000000E+00  0.00000000E+00  0.00000000E+00
  0.00000000E+00  0.00000000E+00  0.00000000E+00
  0.00000000E+00  0.00000000E+00  0.00000000E+00
  0.00000000E+00  0.00000000E+00  0.00000000E+00
  0.00000000E+00  0.00000000E+00  0.00000000E+00
  0.00000000E+00  0.00000000E+00  0.00000000E+00
